c Reduced graph for GEOM120b generated by Cyril Grelier
p edge 56 691
e 1 2
e 1 3
e 1 4
e 1 5
e 1 6
e 1 7
e 1 8
e 1 9
e 1 10
e 1 11
e 1 12
e 1 13
e 1 14
e 1 15
e 1 16
e 1 17
e 1 18
e 1 19
e 1 20
e 1 21
e 1 22
e 1 23
e 1 24
e 1 25
e 1 26
e 1 27
e 1 29
e 1 30
e 1 32
e 1 33
e 1 34
e 1 35
e 1 37
e 1 39
e 1 40
e 1 43
e 1 51
e 1 54
e 1 55
e 1 56
e 2 3
e 2 4
e 2 5
e 2 6
e 2 7
e 2 8
e 2 9
e 2 10
e 2 11
e 2 12
e 2 13
e 2 14
e 2 15
e 2 16
e 2 17
e 2 18
e 2 19
e 2 20
e 2 21
e 2 23
e 2 24
e 2 25
e 2 28
e 2 29
e 2 30
e 2 31
e 2 35
e 2 36
e 2 37
e 2 38
e 2 39
e 2 40
e 2 42
e 2 43
e 2 44
e 2 46
e 2 51
e 2 52
e 3 4
e 3 5
e 3 6
e 3 7
e 3 8
e 3 9
e 3 10
e 3 11
e 3 12
e 3 14
e 3 15
e 3 16
e 3 18
e 3 19
e 3 22
e 3 23
e 3 26
e 3 27
e 3 28
e 3 32
e 3 33
e 3 34
e 3 37
e 3 39
e 3 40
e 3 41
e 3 43
e 3 45
e 3 47
e 3 51
e 3 53
e 3 54
e 3 55
e 3 56
e 4 5
e 4 6
e 4 7
e 4 8
e 4 9
e 4 10
e 4 11
e 4 12
e 4 13
e 4 14
e 4 15
e 4 16
e 4 17
e 4 18
e 4 19
e 4 20
e 4 21
e 4 22
e 4 24
e 4 25
e 4 28
e 4 29
e 4 30
e 4 31
e 4 32
e 4 35
e 4 36
e 4 38
e 4 42
e 4 44
e 4 46
e 4 49
e 5 6
e 5 7
e 5 8
e 5 9
e 5 10
e 5 11
e 5 12
e 5 13
e 5 14
e 5 15
e 5 18
e 5 19
e 5 20
e 5 23
e 5 25
e 5 26
e 5 27
e 5 29
e 5 30
e 5 33
e 5 34
e 5 35
e 5 37
e 5 39
e 5 40
e 5 43
e 5 51
e 5 54
e 5 55
e 5 56
e 6 7
e 6 8
e 6 9
e 6 10
e 6 11
e 6 12
e 6 14
e 6 15
e 6 16
e 6 18
e 6 19
e 6 22
e 6 23
e 6 26
e 6 27
e 6 28
e 6 32
e 6 33
e 6 34
e 6 41
e 6 45
e 6 47
e 6 48
e 6 50
e 6 53
e 6 54
e 6 55
e 6 56
e 7 8
e 7 9
e 7 10
e 7 12
e 7 13
e 7 14
e 7 15
e 7 17
e 7 20
e 7 21
e 7 24
e 7 25
e 7 26
e 7 29
e 7 30
e 7 31
e 7 35
e 7 37
e 7 39
e 7 40
e 7 42
e 7 43
e 7 51
e 7 52
e 7 55
e 7 56
e 8 9
e 8 10
e 8 11
e 8 12
e 8 13
e 8 14
e 8 15
e 8 16
e 8 17
e 8 18
e 8 19
e 8 20
e 8 21
e 8 22
e 8 24
e 8 25
e 8 28
e 8 31
e 8 32
e 8 36
e 8 38
e 8 44
e 8 46
e 8 49
e 9 11
e 9 15
e 9 16
e 9 17
e 9 18
e 9 19
e 9 22
e 9 23
e 9 24
e 9 26
e 9 27
e 9 28
e 9 32
e 9 33
e 9 34
e 9 38
e 9 41
e 9 44
e 9 45
e 9 46
e 9 47
e 9 48
e 9 49
e 10 12
e 10 13
e 10 14
e 10 17
e 10 20
e 10 21
e 10 24
e 10 25
e 10 26
e 10 29
e 10 30
e 10 31
e 10 35
e 10 37
e 10 39
e 10 40
e 10 42
e 10 43
e 10 51
e 10 52
e 10 55
e 10 56
e 11 15
e 11 16
e 11 17
e 11 18
e 11 19
e 11 22
e 11 23
e 11 26
e 11 27
e 11 28
e 11 32
e 11 33
e 11 34
e 11 38
e 11 41
e 11 44
e 11 45
e 11 46
e 11 47
e 11 48
e 11 49
e 11 50
e 12 13
e 12 14
e 12 17
e 12 20
e 12 21
e 12 24
e 12 25
e 12 29
e 12 30
e 12 31
e 12 35
e 12 36
e 12 37
e 12 39
e 12 40
e 12 42
e 12 43
e 12 51
e 12 52
e 13 14
e 13 15
e 13 17
e 13 20
e 13 21
e 13 24
e 13 25
e 13 29
e 13 30
e 13 31
e 13 35
e 13 36
e 13 37
e 13 38
e 13 39
e 13 42
e 13 44
e 13 46
e 13 49
e 13 52
e 14 17
e 14 20
e 14 21
e 14 24
e 14 25
e 14 29
e 14 30
e 14 31
e 14 35
e 14 36
e 14 37
e 14 39
e 14 40
e 14 42
e 14 43
e 14 51
e 14 52
e 15 16
e 15 17
e 15 18
e 15 19
e 15 20
e 15 21
e 15 22
e 15 24
e 15 28
e 15 31
e 15 32
e 15 34
e 15 36
e 15 38
e 15 44
e 15 46
e 15 49
e 16 17
e 16 18
e 16 19
e 16 22
e 16 23
e 16 24
e 16 27
e 16 28
e 16 32
e 16 33
e 16 34
e 16 38
e 16 41
e 16 44
e 16 45
e 16 46
e 16 48
e 16 49
e 17 20
e 17 21
e 17 24
e 17 25
e 17 28
e 17 29
e 17 30
e 17 31
e 17 36
e 17 38
e 17 42
e 17 44
e 17 46
e 17 49
e 18 19
e 18 22
e 18 23
e 18 26
e 18 27
e 18 28
e 18 32
e 18 33
e 18 34
e 18 38
e 18 41
e 18 45
e 18 46
e 18 47
e 18 48
e 18 50
e 19 22
e 19 23
e 19 26
e 19 27
e 19 28
e 19 32
e 19 33
e 19 34
e 19 38
e 19 41
e 19 45
e 19 47
e 19 48
e 19 50
e 19 53
e 20 21
e 20 24
e 20 25
e 20 29
e 20 30
e 20 31
e 20 35
e 20 36
e 20 37
e 20 39
e 20 40
e 20 42
e 20 43
e 20 44
e 20 52
e 21 24
e 21 25
e 21 29
e 21 30
e 21 31
e 21 35
e 21 36
e 21 37
e 21 38
e 21 39
e 21 42
e 21 44
e 21 49
e 21 52
e 22 23
e 22 27
e 22 28
e 22 32
e 22 33
e 22 34
e 22 38
e 22 41
e 22 44
e 22 45
e 22 46
e 22 47
e 22 48
e 22 49
e 22 50
e 23 26
e 23 27
e 23 28
e 23 32
e 23 33
e 23 34
e 23 41
e 23 45
e 23 47
e 23 48
e 23 50
e 23 53
e 23 54
e 23 55
e 23 56
e 24 25
e 24 28
e 24 29
e 24 30
e 24 31
e 24 36
e 24 38
e 24 42
e 24 44
e 24 46
e 24 49
e 25 29
e 25 30
e 25 31
e 25 35
e 25 36
e 25 37
e 25 39
e 25 40
e 25 42
e 25 43
e 25 44
e 25 52
e 26 27
e 26 33
e 26 34
e 26 40
e 26 41
e 26 45
e 26 47
e 26 48
e 26 50
e 26 51
e 26 53
e 26 54
e 26 55
e 26 56
e 27 28
e 27 32
e 27 33
e 27 34
e 27 41
e 27 45
e 27 47
e 27 48
e 27 50
e 27 53
e 27 54
e 27 55
e 27 56
e 28 32
e 28 34
e 28 36
e 28 38
e 28 41
e 28 44
e 28 46
e 28 48
e 28 49
e 29 30
e 29 31
e 29 35
e 29 36
e 29 37
e 29 39
e 29 40
e 29 42
e 29 43
e 29 52
e 30 31
e 30 35
e 30 36
e 30 37
e 30 39
e 30 40
e 30 42
e 30 43
e 30 52
e 31 35
e 31 36
e 31 38
e 31 42
e 31 44
e 31 46
e 31 49
e 31 52
e 32 33
e 32 34
e 32 38
e 32 41
e 32 45
e 32 46
e 32 47
e 32 48
e 32 50
e 33 34
e 33 41
e 33 45
e 33 47
e 33 48
e 33 50
e 33 53
e 33 54
e 33 55
e 33 56
e 34 41
e 34 45
e 34 47
e 34 48
e 34 50
e 34 53
e 34 54
e 35 37
e 35 39
e 35 40
e 35 42
e 35 43
e 35 51
e 35 52
e 36 38
e 36 42
e 36 44
e 36 46
e 36 49
e 37 39
e 37 40
e 37 42
e 37 43
e 37 51
e 37 52
e 38 44
e 38 46
e 38 49
e 39 40
e 39 42
e 39 43
e 39 51
e 39 52
e 40 43
e 40 51
e 40 55
e 40 56
e 41 45
e 41 47
e 41 48
e 41 50
e 41 53
e 42 52
e 43 51
e 43 52
e 43 55
e 43 56
e 44 46
e 44 49
e 45 47
e 45 48
e 45 50
e 45 53
e 45 54
e 46 49
e 47 48
e 47 50
e 47 53
e 47 54
e 48 50
e 48 53
e 50 53
e 50 54
e 51 54
e 51 55
e 51 56
e 53 54
e 53 55
e 53 56
e 54 55
e 54 56
e 55 56
